p edge 50 123
e 1 2
e 1 4
e 1 18
e 1 20
e 1 30
e 1 32
e 1 45
e 1 48
e 2 5
e 2 6
e 2 18
e 2 33
e 3 7
e 3 26
e 3 32
e 3 36
e 4 23
e 4 45
e 5 11
e 5 12
e 5 17
e 5 50
e 6 7
e 6 17
e 6 20
e 7 27
e 7 48
e 8 9
e 8 17
e 8 25
e 8 30
e 8 47
e 9 18
e 9 26
e 10 13
e 10 35
e 10 38
e 10 41
e 12 14
e 12 20
e 12 29
e 12 36
e 12 44
e 12 48
e 13 14
e 13 15
e 13 18
e 13 32
e 13 34
e 14 16
e 14 19
e 14 22
e 15 24
e 15 34
e 15 39
e 15 49
e 16 28
e 16 30
e 16 47
e 16 50
e 17 18
e 17 44
e 17 49
e 18 27
e 18 34
e 18 37
e 18 39
e 18 40
e 19 28
e 19 29
e 19 31
e 19 37
e 20 25
e 20 26
e 20 43
e 20 45
e 21 22
e 21 38
e 22 28
e 22 44
e 22 46
e 23 32
e 23 33
e 23 41
e 24 25
e 24 29
e 24 46
e 25 47
e 25 48
e 26 42
e 26 49
e 27 36
e 28 34
e 28 42
e 28 48
e 29 32
e 29 35
e 29 41
e 29 43
e 29 45
e 31 39
e 31 46
e 33 40
e 33 50
e 34 39
e 34 46
e 35 37
e 36 39
e 36 40
e 36 44
e 36 48
e 37 39
e 37 49
e 38 41
e 39 50
e 41 47
e 42 45
e 43 50
e 44 45
e 45 49
e 45 50
e 48 49
e 48 50
